# Solution for model crop rotation_srl_ilp
# Objective value = 4.0341364531100243e+00
Z_16_0_0 0
Z_16_0_1 0
Z_16_0_2 1
Z_16_0_3 0
Z_567_1_0 0
Z_567_1_1 0
Z_567_1_2 1
Z_567_1_3 0
Z_567_0_0 1
Z_567_0_1 0
Z_567_0_2 0
Z_567_0_3 0
Z_66_0_0 0
Z_66_0_1 0
Z_66_0_2 0
Z_66_0_3 1
Z_98_1_0 0
Z_98_1_1 0
Z_98_1_2 1
Z_98_1_3 0
Z_98_0_0 1
Z_98_0_1 0
Z_98_0_2 0
Z_98_0_3 0
Z_667_0_0 0
Z_667_0_1 0
Z_667_0_2 1
Z_667_0_3 0
Z_114_0_0 0
Z_114_0_1 0
Z_114_0_2 0
Z_114_0_3 1
